column=7;
row=7;
max=4;
left=[0, 3, 0, 4, 2, 0, 3];
right=[0, 0, 0, 1, 4, 0, 2];
top=[0, 3, 0, 1, 0, 3, 1];
bottom=[3, 1, 0, 0, 2, 4, 0];
Board=[|0,0,2,1,4,0,0|0,0,0,4,0,0,1|0,0,3,2,0,1,0|4,2,0,0,1,0,0|2,0,1,0,3,4,0|0,0,0,0,0,0,0|0,0,4,0,0,0,2|]